gen	cost
1	1472
2	1461
3	1422
4	1411
5	1402
6	1372
7	1361
8	1360
9	1342
10	1337
11	1314
12	1309
13	1306
14	1303
15	1293
16	1277
17	1264
18	1255
19	1244
20	1236
21	1233
22	1213
23	1207
24	1205
25	1198
26	1190
27	1178
28	1178
29	1176
30	1176
31	1171
32	1168
33	1161
34	1158
35	1157
36	1154
37	1153
38	1148
39	1148
40	1145
41	1143
42	1143
43	1142
44	1138
45	1138
46	1137
47	1136
48	1136
49	1135
50	1135

